c Generated map
c Size: 13 * 13, weights in range: 1 to 10, walls: False, with ratio 0.4
c dim 2 of 4
c
p sp 169 312
c graph contains 169 nodes and 312 arcs
c
a 1 14 9
a 14 1 9
a 1 2 2
a 2 1 2
a 2 15 6
a 15 2 6
a 2 3 4
a 3 2 4
a 3 16 1
a 16 3 1
a 3 4 7
a 4 3 7
a 4 17 7
a 17 4 7
a 4 5 1
a 5 4 1
a 5 18 8
a 18 5 8
a 5 6 5
a 6 5 5
a 6 19 9
a 19 6 9
a 6 7 2
a 7 6 2
a 7 20 1
a 20 7 1
a 7 8 8
a 8 7 8
a 8 21 9
a 21 8 9
a 8 9 7
a 9 8 7
a 9 22 1
a 22 9 1
a 9 10 7
a 10 9 7
a 10 23 2
a 23 10 2
a 10 11 8
a 11 10 8
a 11 24 9
a 24 11 9
a 11 12 2
a 12 11 2
a 12 25 10
a 25 12 10
a 12 13 8
a 13 12 8
a 13 26 5
a 26 13 5
a 14 27 7
a 27 14 7
a 14 15 5
a 15 14 5
a 15 28 9
a 28 15 9
a 15 16 1
a 16 15 1
a 16 29 7
a 29 16 7
a 16 17 8
a 17 16 8
a 17 30 6
a 30 17 6
a 17 18 6
a 18 17 6
a 18 31 5
a 31 18 5
a 18 19 5
a 19 18 5
a 19 32 10
a 32 19 10
a 19 20 1
a 20 19 1
a 20 33 1
a 33 20 1
a 20 21 3
a 21 20 3
a 21 34 7
a 34 21 7
a 21 22 1
a 22 21 1
a 22 35 4
a 35 22 4
a 22 23 9
a 23 22 9
a 23 36 9
a 36 23 9
a 23 24 10
a 24 23 10
a 24 37 7
a 37 24 7
a 24 25 6
a 25 24 6
a 25 38 6
a 38 25 6
a 25 26 3
a 26 25 3
a 26 39 10
a 39 26 10
a 27 40 4
a 40 27 4
a 27 28 8
a 28 27 8
a 28 41 8
a 41 28 8
a 28 29 9
a 29 28 9
a 29 42 6
a 42 29 6
a 29 30 7
a 30 29 7
a 30 43 1
a 43 30 1
a 30 31 3
a 31 30 3
a 31 44 3
a 44 31 3
a 31 32 4
a 32 31 4
a 32 45 8
a 45 32 8
a 32 33 7
a 33 32 7
a 33 46 5
a 46 33 5
a 33 34 2
a 34 33 2
a 34 47 7
a 47 34 7
a 34 35 9
a 35 34 9
a 35 48 3
a 48 35 3
a 35 36 3
a 36 35 3
a 36 49 1
a 49 36 1
a 36 37 9
a 37 36 9
a 37 50 2
a 50 37 2
a 37 38 9
a 38 37 9
a 38 51 1
a 51 38 1
a 38 39 3
a 39 38 3
a 39 52 2
a 52 39 2
a 40 53 4
a 53 40 4
a 40 41 1
a 41 40 1
a 41 54 2
a 54 41 2
a 41 42 7
a 42 41 7
a 42 55 3
a 55 42 3
a 42 43 10
a 43 42 10
a 43 56 8
a 56 43 8
a 43 44 5
a 44 43 5
a 44 57 3
a 57 44 3
a 44 45 7
a 45 44 7
a 45 58 7
a 58 45 7
a 45 46 6
a 46 45 6
a 46 59 7
a 59 46 7
a 46 47 6
a 47 46 6
a 47 60 1
a 60 47 1
a 47 48 3
a 48 47 3
a 48 61 10
a 61 48 10
a 48 49 5
a 49 48 5
a 49 62 5
a 62 49 5
a 49 50 7
a 50 49 7
a 50 63 5
a 63 50 5
a 50 51 3
a 51 50 3
a 51 64 7
a 64 51 7
a 51 52 2
a 52 51 2
a 52 65 5
a 65 52 5
a 53 66 1
a 66 53 1
a 53 54 9
a 54 53 9
a 54 67 10
a 67 54 10
a 54 55 8
a 55 54 8
a 55 68 1
a 68 55 1
a 55 56 4
a 56 55 4
a 56 69 10
a 69 56 10
a 56 57 3
a 57 56 3
a 57 70 5
a 70 57 5
a 57 58 5
a 58 57 5
a 58 71 9
a 71 58 9
a 58 59 4
a 59 58 4
a 59 72 9
a 72 59 9
a 59 60 10
a 60 59 10
a 60 73 9
a 73 60 9
a 60 61 8
a 61 60 8
a 61 74 5
a 74 61 5
a 61 62 2
a 62 61 2
a 62 75 8
a 75 62 8
a 62 63 6
a 63 62 6
a 63 76 8
a 76 63 8
a 63 64 4
a 64 63 4
a 64 77 2
a 77 64 2
a 64 65 1
a 65 64 1
a 65 78 4
a 78 65 4
a 66 79 1
a 79 66 1
a 66 67 9
a 67 66 9
a 67 80 2
a 80 67 2
a 67 68 4
a 68 67 4
a 68 81 9
a 81 68 9
a 68 69 5
a 69 68 5
a 69 82 1
a 82 69 1
a 69 70 6
a 70 69 6
a 70 83 9
a 83 70 9
a 70 71 9
a 71 70 9
a 71 84 6
a 84 71 6
a 71 72 5
a 72 71 5
a 72 85 3
a 85 72 3
a 72 73 9
a 73 72 9
a 73 86 7
a 86 73 7
a 73 74 6
a 74 73 6
a 74 87 4
a 87 74 4
a 74 75 2
a 75 74 2
a 75 88 10
a 88 75 10
a 75 76 3
a 76 75 3
a 76 89 6
a 89 76 6
a 76 77 10
a 77 76 10
a 77 90 5
a 90 77 5
a 77 78 2
a 78 77 2
a 78 91 1
a 91 78 1
a 79 92 4
a 92 79 4
a 79 80 7
a 80 79 7
a 80 93 2
a 93 80 2
a 80 81 10
a 81 80 10
a 81 94 2
a 94 81 2
a 81 82 1
a 82 81 1
a 82 95 7
a 95 82 7
a 82 83 4
a 83 82 4
a 83 96 6
a 96 83 6
a 83 84 7
a 84 83 7
a 84 97 5
a 97 84 5
a 84 85 8
a 85 84 8
a 85 98 1
a 98 85 1
a 85 86 2
a 86 85 2
a 86 99 8
a 99 86 8
a 86 87 1
a 87 86 1
a 87 100 10
a 100 87 10
a 87 88 5
a 88 87 5
a 88 101 5
a 101 88 5
a 88 89 8
a 89 88 8
a 89 102 2
a 102 89 2
a 89 90 10
a 90 89 10
a 90 103 7
a 103 90 7
a 90 91 1
a 91 90 1
a 91 104 10
a 104 91 10
a 92 105 3
a 105 92 3
a 92 93 1
a 93 92 1
a 93 106 10
a 106 93 10
a 93 94 4
a 94 93 4
a 94 107 6
a 107 94 6
a 94 95 7
a 95 94 7
a 95 108 2
a 108 95 2
a 95 96 10
a 96 95 10
a 96 109 8
a 109 96 8
a 96 97 1
a 97 96 1
a 97 110 4
a 110 97 4
a 97 98 4
a 98 97 4
a 98 111 8
a 111 98 8
a 98 99 3
a 99 98 3
a 99 112 5
a 112 99 5
a 99 100 9
a 100 99 9
a 100 113 5
a 113 100 5
a 100 101 8
a 101 100 8
a 101 114 2
a 114 101 2
a 101 102 1
a 102 101 1
a 102 115 7
a 115 102 7
a 102 103 6
a 103 102 6
a 103 116 4
a 116 103 4
a 103 104 5
a 104 103 5
a 104 117 1
a 117 104 1
a 105 118 6
a 118 105 6
a 105 106 9
a 106 105 9
a 106 119 3
a 119 106 3
a 106 107 2
a 107 106 2
a 107 120 10
a 120 107 10
a 107 108 5
a 108 107 5
a 108 121 4
a 121 108 4
a 108 109 2
a 109 108 2
a 109 122 7
a 122 109 7
a 109 110 10
a 110 109 10
a 110 123 7
a 123 110 7
a 110 111 4
a 111 110 4
a 111 124 7
a 124 111 7
a 111 112 3
a 112 111 3
a 112 125 8
a 125 112 8
a 112 113 2
a 113 112 2
a 113 126 1
a 126 113 1
a 113 114 3
a 114 113 3
a 114 127 9
a 127 114 9
a 114 115 8
a 115 114 8
a 115 128 10
a 128 115 10
a 115 116 6
a 116 115 6
a 116 129 8
a 129 116 8
a 116 117 3
a 117 116 3
a 117 130 8
a 130 117 8
a 118 131 4
a 131 118 4
a 118 119 4
a 119 118 4
a 119 132 1
a 132 119 1
a 119 120 4
a 120 119 4
a 120 133 2
a 133 120 2
a 120 121 2
a 121 120 2
a 121 134 8
a 134 121 8
a 121 122 9
a 122 121 9
a 122 135 1
a 135 122 1
a 122 123 2
a 123 122 2
a 123 136 9
a 136 123 9
a 123 124 2
a 124 123 2
a 124 137 10
a 137 124 10
a 124 125 5
a 125 124 5
a 125 138 1
a 138 125 1
a 125 126 10
a 126 125 10
a 126 139 9
a 139 126 9
a 126 127 10
a 127 126 10
a 127 140 8
a 140 127 8
a 127 128 5
a 128 127 5
a 128 141 2
a 141 128 2
a 128 129 8
a 129 128 8
a 129 142 5
a 142 129 5
a 129 130 4
a 130 129 4
a 130 143 1
a 143 130 1
a 131 144 8
a 144 131 8
a 131 132 3
a 132 131 3
a 132 145 2
a 145 132 2
a 132 133 7
a 133 132 7
a 133 146 7
a 146 133 7
a 133 134 8
a 134 133 8
a 134 147 3
a 147 134 3
a 134 135 5
a 135 134 5
a 135 148 2
a 148 135 2
a 135 136 7
a 136 135 7
a 136 149 9
a 149 136 9
a 136 137 10
a 137 136 10
a 137 150 9
a 150 137 9
a 137 138 9
a 138 137 9
a 138 151 8
a 151 138 8
a 138 139 4
a 139 138 4
a 139 152 10
a 152 139 10
a 139 140 1
a 140 139 1
a 140 153 5
a 153 140 5
a 140 141 8
a 141 140 8
a 141 154 7
a 154 141 7
a 141 142 10
a 142 141 10
a 142 155 7
a 155 142 7
a 142 143 1
a 143 142 1
a 143 156 6
a 156 143 6
a 144 157 1
a 157 144 1
a 144 145 6
a 145 144 6
a 145 158 6
a 158 145 6
a 145 146 4
a 146 145 4
a 146 159 9
a 159 146 9
a 146 147 5
a 147 146 5
a 147 160 10
a 160 147 10
a 147 148 6
a 148 147 6
a 148 161 7
a 161 148 7
a 148 149 8
a 149 148 8
a 149 162 4
a 162 149 4
a 149 150 3
a 150 149 3
a 150 163 1
a 163 150 1
a 150 151 1
a 151 150 1
a 151 164 2
a 164 151 2
a 151 152 10
a 152 151 10
a 152 165 10
a 165 152 10
a 152 153 10
a 153 152 10
a 153 166 2
a 166 153 2
a 153 154 8
a 154 153 8
a 154 167 3
a 167 154 3
a 154 155 7
a 155 154 7
a 155 168 6
a 168 155 6
a 155 156 2
a 156 155 2
a 156 169 10
a 169 156 10
a 157 158 10
a 158 157 10
a 158 159 8
a 159 158 8
a 159 160 5
a 160 159 5
a 160 161 6
a 161 160 6
a 161 162 8
a 162 161 8
a 162 163 9
a 163 162 9
a 163 164 9
a 164 163 9
a 164 165 7
a 165 164 7
a 165 166 2
a 166 165 2
a 166 167 10
a 167 166 10
a 167 168 7
a 168 167 7
a 168 169 4
a 169 168 4
